(set-info :status unknown)
(declare-fun C () (_ BitVec 18))
(declare-fun %x () (_ BitVec 6))
(declare-fun |ana_WillNotOverflowSignedAdd(%x, trunc(C))| () (_ BitVec 1))
(declare-fun u_%sx () (_ BitVec 8))
(assert
 (let (($x1377 (= (bvadd ((_ sign_extend 1) %x) ((_ sign_extend 1) ((_ extract 5 0) C))) ((_ sign_extend 1) (bvadd %x ((_ extract 5 0) C))))))
 (let (($x632 (= |ana_WillNotOverflowSignedAdd(%x, trunc(C))| (_ bv1 1))))
 (and (=> $x632 $x1377) (= u_%sx (_ bv1 8)) $x632 (= (bvand C (bvshl (_ bv262143 18) (bvsub (_ bv6 18) (_ bv1 18)))) (_ bv0 18)) (not $x1377)))))
(check-sat)
